10
0 94 30 76 72 19 8 45 6 13 
94 0 19 100 32 96 53 17 22 56 
30 19 0 84 34 1 46 3 14 40 
76 100 84 0 27 79 44 62 74 84 
72 32 34 27 0 18 4 7 50 14 
19 96 1 79 18 0 11 30 94 9 
8 53 46 44 4 11 0 87 81 58 
45 17 3 62 7 30 87 0 65 8 
6 22 14 74 50 94 81 65 0 9 
13 56 40 84 14 9 58 8 9 0 
RBBRBRRBRB
